NAME: clu_20_6
TYPE: TSP
DIMENSION: 20
EDGE_WEIGHT_TYPE: EUC_2D
NODE_COORD_SECTION
1 52 57
2 83 18
3 78 76
4 77 18
5 50 72
6 69 69
7 58 101
8 10 5
9 65 102
10 69 30
11 70 70
12 7 34
13 38 112
14 74 71
15 14 5
16 69 69
17 60 99
18 2 15
19 77 109
20 69 110
EOF
